(set-info :smt-lib-version 2.6)
(set-logic QF_FP)
(set-info :source |Random FP created by PyMPF|)
(set-info :license |https://www.gnu.org/licenses/gpl-3.0.html|)
(set-info :category random)
(set-info :status unsat)
(declare-const x Float32)
(assert (= x ((_ to_fp 8 24) #x80800000)))
;; x should be Float32(0x80800000 [Rational(-1, 85070591730234615865843651857942052864), -0.000000])

(declare-const y Float32)
(assert (= y ((_ to_fp 8 24) #xCAB6D561)))
;; y should be Float32(0xCAB6D561 [Rational(-11982177, 2), -5991088.500000])

(declare-const result Float32)
(assert (= result (fp.mul RTP x y)))
(assert (not (= result ((_ to_fp 8 24) #x0BB6D561))))
(check-sat)
(exit)
